x = 17;
y = 14;
c = 67;
n = 36;

p = [13  38  92  83  79  15  60  14  80  26  88  47  10  32  36  97  18  96  42  39  71  32  96  65  34  100  80  37  88  92  44  94  80  69  26  73];
w = [10  6  10  6  9  3  8  4  6  7  3  3  6  1  5  6  4  9  5  9  5  2  4  7  9  3  4  4  5  7  10  9  4  3  2  3];
s = [1  3  3  3  9  14  7  13  10  14  9  8  6  9  4  6  8  7  12  3  13  14  8  5  6  11  5  3  1  12  12  12  11  6  2  11];
